objective value:                           -6820.8967
x18                                                 1 	(obj:-114.232)
x29                                                 1 	(obj:-628.389)
x32                                                 1 	(obj:-73.5287)
x41                                                 1 	(obj:-196.446)
x45                                                 1 	(obj:-500.148)
x134                                                1 	(obj:-662.114)
x151                                                1 	(obj:-279.663)
x154                                                1 	(obj:-100.227)
x167                                                1 	(obj:-59.6707)
x175                                                1 	(obj:-501.346)
x188                                                1 	(obj:-734.751)
x199                                                1 	(obj:-397.556)
x237                                                1 	(obj:-64.6162)
x246                                                1 	(obj:-128.27)
x316                                                1 	(obj:-261.638)
x319                                                1 	(obj:-120.802)
x381                                                1 	(obj:-93.8702)
x384                                                1 	(obj:-82.6949)
x391                                                1 	(obj:-124.826)
x430                                                1 	(obj:-513.031)
x458                                                1 	(obj:-345.027)
x460                                                1 	(obj:-263.462)
x482                                                1 	(obj:-574.588)
